c File: flat200_3_0.col
c
c SOURCE: Joseph Culberson (joe@cs.ualberta.ca)
c DESCRIPTION: Quasi-random coloring problem
c              generated with flatness = 0
c                             probability = 0.036
c                             known coloring = 3
c                             random seed = 1091
c              Creation Date:  Wed Feb 24 10:40:20 1999
c Maximum degree = 8 Minimum degree = 0
c COLOR VERIFICATION: Using the permuted order
c under simple greedy yields the specified
c coloring number
c Color = 3 specified partitions = 3
c p edge 200 479
c cnf created by edge2cnf
p cnf 600 2237
-1 -2 0
-1 -3 0
-2 -3 0
1 2 3 0
-4 -5 0
-4 -6 0
-5 -6 0
4 5 6 0
-7 -8 0
-7 -9 0
-8 -9 0
7 8 9 0
-10 -11 0
-10 -12 0
-11 -12 0
10 11 12 0
-13 -14 0
-13 -15 0
-14 -15 0
13 14 15 0
-16 -17 0
-16 -18 0
-17 -18 0
16 17 18 0
-19 -20 0
-19 -21 0
-20 -21 0
19 20 21 0
-22 -23 0
-22 -24 0
-23 -24 0
22 23 24 0
-25 -26 0
-25 -27 0
-26 -27 0
25 26 27 0
-28 -29 0
-28 -30 0
-29 -30 0
28 29 30 0
-31 -32 0
-31 -33 0
-32 -33 0
31 32 33 0
-34 -35 0
-34 -36 0
-35 -36 0
34 35 36 0
-37 -38 0
-37 -39 0
-38 -39 0
37 38 39 0
-40 -41 0
-40 -42 0
-41 -42 0
40 41 42 0
-43 -44 0
-43 -45 0
-44 -45 0
43 44 45 0
-46 -47 0
-46 -48 0
-47 -48 0
46 47 48 0
-49 -50 0
-49 -51 0
-50 -51 0
49 50 51 0
-52 -53 0
-52 -54 0
-53 -54 0
52 53 54 0
-55 -56 0
-55 -57 0
-56 -57 0
55 56 57 0
-58 -59 0
-58 -60 0
-59 -60 0
58 59 60 0
-61 -62 0
-61 -63 0
-62 -63 0
61 62 63 0
-64 -65 0
-64 -66 0
-65 -66 0
64 65 66 0
-67 -68 0
-67 -69 0
-68 -69 0
67 68 69 0
-70 -71 0
-70 -72 0
-71 -72 0
70 71 72 0
-73 -74 0
-73 -75 0
-74 -75 0
73 74 75 0
-76 -77 0
-76 -78 0
-77 -78 0
76 77 78 0
-79 -80 0
-79 -81 0
-80 -81 0
79 80 81 0
-82 -83 0
-82 -84 0
-83 -84 0
82 83 84 0
-85 -86 0
-85 -87 0
-86 -87 0
85 86 87 0
-88 -89 0
-88 -90 0
-89 -90 0
88 89 90 0
-91 -92 0
-91 -93 0
-92 -93 0
91 92 93 0
-94 -95 0
-94 -96 0
-95 -96 0
94 95 96 0
-97 -98 0
-97 -99 0
-98 -99 0
97 98 99 0
-100 -101 0
-100 -102 0
-101 -102 0
100 101 102 0
-103 -104 0
-103 -105 0
-104 -105 0
103 104 105 0
-106 -107 0
-106 -108 0
-107 -108 0
106 107 108 0
-109 -110 0
-109 -111 0
-110 -111 0
109 110 111 0
-112 -113 0
-112 -114 0
-113 -114 0
112 113 114 0
-115 -116 0
-115 -117 0
-116 -117 0
115 116 117 0
-118 -119 0
-118 -120 0
-119 -120 0
118 119 120 0
-121 -122 0
-121 -123 0
-122 -123 0
121 122 123 0
-124 -125 0
-124 -126 0
-125 -126 0
124 125 126 0
-127 -128 0
-127 -129 0
-128 -129 0
127 128 129 0
-130 -131 0
-130 -132 0
-131 -132 0
130 131 132 0
-133 -134 0
-133 -135 0
-134 -135 0
133 134 135 0
-136 -137 0
-136 -138 0
-137 -138 0
136 137 138 0
-139 -140 0
-139 -141 0
-140 -141 0
139 140 141 0
-142 -143 0
-142 -144 0
-143 -144 0
142 143 144 0
-145 -146 0
-145 -147 0
-146 -147 0
145 146 147 0
-148 -149 0
-148 -150 0
-149 -150 0
148 149 150 0
-151 -152 0
-151 -153 0
-152 -153 0
151 152 153 0
-154 -155 0
-154 -156 0
-155 -156 0
154 155 156 0
-157 -158 0
-157 -159 0
-158 -159 0
157 158 159 0
-160 -161 0
-160 -162 0
-161 -162 0
160 161 162 0
-163 -164 0
-163 -165 0
-164 -165 0
163 164 165 0
-166 -167 0
-166 -168 0
-167 -168 0
166 167 168 0
-169 -170 0
-169 -171 0
-170 -171 0
169 170 171 0
-172 -173 0
-172 -174 0
-173 -174 0
172 173 174 0
-175 -176 0
-175 -177 0
-176 -177 0
175 176 177 0
-178 -179 0
-178 -180 0
-179 -180 0
178 179 180 0
-181 -182 0
-181 -183 0
-182 -183 0
181 182 183 0
-184 -185 0
-184 -186 0
-185 -186 0
184 185 186 0
-187 -188 0
-187 -189 0
-188 -189 0
187 188 189 0
-190 -191 0
-190 -192 0
-191 -192 0
190 191 192 0
-193 -194 0
-193 -195 0
-194 -195 0
193 194 195 0
-196 -197 0
-196 -198 0
-197 -198 0
196 197 198 0
-199 -200 0
-199 -201 0
-200 -201 0
199 200 201 0
-202 -203 0
-202 -204 0
-203 -204 0
202 203 204 0
-205 -206 0
-205 -207 0
-206 -207 0
205 206 207 0
-208 -209 0
-208 -210 0
-209 -210 0
208 209 210 0
-211 -212 0
-211 -213 0
-212 -213 0
211 212 213 0
-214 -215 0
-214 -216 0
-215 -216 0
214 215 216 0
-217 -218 0
-217 -219 0
-218 -219 0
217 218 219 0
-220 -221 0
-220 -222 0
-221 -222 0
220 221 222 0
-223 -224 0
-223 -225 0
-224 -225 0
223 224 225 0
-226 -227 0
-226 -228 0
-227 -228 0
226 227 228 0
-229 -230 0
-229 -231 0
-230 -231 0
229 230 231 0
-232 -233 0
-232 -234 0
-233 -234 0
232 233 234 0
-235 -236 0
-235 -237 0
-236 -237 0
235 236 237 0
-238 -239 0
-238 -240 0
-239 -240 0
238 239 240 0
-241 -242 0
-241 -243 0
-242 -243 0
241 242 243 0
-244 -245 0
-244 -246 0
-245 -246 0
244 245 246 0
-247 -248 0
-247 -249 0
-248 -249 0
247 248 249 0
-250 -251 0
-250 -252 0
-251 -252 0
250 251 252 0
-253 -254 0
-253 -255 0
-254 -255 0
253 254 255 0
-256 -257 0
-256 -258 0
-257 -258 0
256 257 258 0
-259 -260 0
-259 -261 0
-260 -261 0
259 260 261 0
-262 -263 0
-262 -264 0
-263 -264 0
262 263 264 0
-265 -266 0
-265 -267 0
-266 -267 0
265 266 267 0
-268 -269 0
-268 -270 0
-269 -270 0
268 269 270 0
-271 -272 0
-271 -273 0
-272 -273 0
271 272 273 0
-274 -275 0
-274 -276 0
-275 -276 0
274 275 276 0
-277 -278 0
-277 -279 0
-278 -279 0
277 278 279 0
-280 -281 0
-280 -282 0
-281 -282 0
280 281 282 0
-283 -284 0
-283 -285 0
-284 -285 0
283 284 285 0
-286 -287 0
-286 -288 0
-287 -288 0
286 287 288 0
-289 -290 0
-289 -291 0
-290 -291 0
289 290 291 0
-292 -293 0
-292 -294 0
-293 -294 0
292 293 294 0
-295 -296 0
-295 -297 0
-296 -297 0
295 296 297 0
-298 -299 0
-298 -300 0
-299 -300 0
298 299 300 0
-301 -302 0
-301 -303 0
-302 -303 0
301 302 303 0
-304 -305 0
-304 -306 0
-305 -306 0
304 305 306 0
-307 -308 0
-307 -309 0
-308 -309 0
307 308 309 0
-310 -311 0
-310 -312 0
-311 -312 0
310 311 312 0
-313 -314 0
-313 -315 0
-314 -315 0
313 314 315 0
-316 -317 0
-316 -318 0
-317 -318 0
316 317 318 0
-319 -320 0
-319 -321 0
-320 -321 0
319 320 321 0
-322 -323 0
-322 -324 0
-323 -324 0
322 323 324 0
-325 -326 0
-325 -327 0
-326 -327 0
325 326 327 0
-328 -329 0
-328 -330 0
-329 -330 0
328 329 330 0
-331 -332 0
-331 -333 0
-332 -333 0
331 332 333 0
-334 -335 0
-334 -336 0
-335 -336 0
334 335 336 0
-337 -338 0
-337 -339 0
-338 -339 0
337 338 339 0
-340 -341 0
-340 -342 0
-341 -342 0
340 341 342 0
-343 -344 0
-343 -345 0
-344 -345 0
343 344 345 0
-346 -347 0
-346 -348 0
-347 -348 0
346 347 348 0
-349 -350 0
-349 -351 0
-350 -351 0
349 350 351 0
-352 -353 0
-352 -354 0
-353 -354 0
352 353 354 0
-355 -356 0
-355 -357 0
-356 -357 0
355 356 357 0
-358 -359 0
-358 -360 0
-359 -360 0
358 359 360 0
-361 -362 0
-361 -363 0
-362 -363 0
361 362 363 0
-364 -365 0
-364 -366 0
-365 -366 0
364 365 366 0
-367 -368 0
-367 -369 0
-368 -369 0
367 368 369 0
-370 -371 0
-370 -372 0
-371 -372 0
370 371 372 0
-373 -374 0
-373 -375 0
-374 -375 0
373 374 375 0
-376 -377 0
-376 -378 0
-377 -378 0
376 377 378 0
-379 -380 0
-379 -381 0
-380 -381 0
379 380 381 0
-382 -383 0
-382 -384 0
-383 -384 0
382 383 384 0
-385 -386 0
-385 -387 0
-386 -387 0
385 386 387 0
-388 -389 0
-388 -390 0
-389 -390 0
388 389 390 0
-391 -392 0
-391 -393 0
-392 -393 0
391 392 393 0
-394 -395 0
-394 -396 0
-395 -396 0
394 395 396 0
-397 -398 0
-397 -399 0
-398 -399 0
397 398 399 0
-400 -401 0
-400 -402 0
-401 -402 0
400 401 402 0
-403 -404 0
-403 -405 0
-404 -405 0
403 404 405 0
-406 -407 0
-406 -408 0
-407 -408 0
406 407 408 0
-409 -410 0
-409 -411 0
-410 -411 0
409 410 411 0
-412 -413 0
-412 -414 0
-413 -414 0
412 413 414 0
-415 -416 0
-415 -417 0
-416 -417 0
415 416 417 0
-418 -419 0
-418 -420 0
-419 -420 0
418 419 420 0
-421 -422 0
-421 -423 0
-422 -423 0
421 422 423 0
-424 -425 0
-424 -426 0
-425 -426 0
424 425 426 0
-427 -428 0
-427 -429 0
-428 -429 0
427 428 429 0
-430 -431 0
-430 -432 0
-431 -432 0
430 431 432 0
-433 -434 0
-433 -435 0
-434 -435 0
433 434 435 0
-436 -437 0
-436 -438 0
-437 -438 0
436 437 438 0
-439 -440 0
-439 -441 0
-440 -441 0
439 440 441 0
-442 -443 0
-442 -444 0
-443 -444 0
442 443 444 0
-445 -446 0
-445 -447 0
-446 -447 0
445 446 447 0
-448 -449 0
-448 -450 0
-449 -450 0
448 449 450 0
-451 -452 0
-451 -453 0
-452 -453 0
451 452 453 0
-454 -455 0
-454 -456 0
-455 -456 0
454 455 456 0
-457 -458 0
-457 -459 0
-458 -459 0
457 458 459 0
-460 -461 0
-460 -462 0
-461 -462 0
460 461 462 0
-463 -464 0
-463 -465 0
-464 -465 0
463 464 465 0
-466 -467 0
-466 -468 0
-467 -468 0
466 467 468 0
-469 -470 0
-469 -471 0
-470 -471 0
469 470 471 0
-472 -473 0
-472 -474 0
-473 -474 0
472 473 474 0
-475 -476 0
-475 -477 0
-476 -477 0
475 476 477 0
-478 -479 0
-478 -480 0
-479 -480 0
478 479 480 0
-481 -482 0
-481 -483 0
-482 -483 0
481 482 483 0
-484 -485 0
-484 -486 0
-485 -486 0
484 485 486 0
-487 -488 0
-487 -489 0
-488 -489 0
487 488 489 0
-490 -491 0
-490 -492 0
-491 -492 0
490 491 492 0
-493 -494 0
-493 -495 0
-494 -495 0
493 494 495 0
-496 -497 0
-496 -498 0
-497 -498 0
496 497 498 0
-499 -500 0
-499 -501 0
-500 -501 0
499 500 501 0
-502 -503 0
-502 -504 0
-503 -504 0
502 503 504 0
-505 -506 0
-505 -507 0
-506 -507 0
505 506 507 0
-508 -509 0
-508 -510 0
-509 -510 0
508 509 510 0
-511 -512 0
-511 -513 0
-512 -513 0
511 512 513 0
-514 -515 0
-514 -516 0
-515 -516 0
514 515 516 0
-517 -518 0
-517 -519 0
-518 -519 0
517 518 519 0
-520 -521 0
-520 -522 0
-521 -522 0
520 521 522 0
-523 -524 0
-523 -525 0
-524 -525 0
523 524 525 0
-526 -527 0
-526 -528 0
-527 -528 0
526 527 528 0
-529 -530 0
-529 -531 0
-530 -531 0
529 530 531 0
-532 -533 0
-532 -534 0
-533 -534 0
532 533 534 0
-535 -536 0
-535 -537 0
-536 -537 0
535 536 537 0
-538 -539 0
-538 -540 0
-539 -540 0
538 539 540 0
-541 -542 0
-541 -543 0
-542 -543 0
541 542 543 0
-544 -545 0
-544 -546 0
-545 -546 0
544 545 546 0
-547 -548 0
-547 -549 0
-548 -549 0
547 548 549 0
-550 -551 0
-550 -552 0
-551 -552 0
550 551 552 0
-553 -554 0
-553 -555 0
-554 -555 0
553 554 555 0
-556 -557 0
-556 -558 0
-557 -558 0
556 557 558 0
-559 -560 0
-559 -561 0
-560 -561 0
559 560 561 0
-562 -563 0
-562 -564 0
-563 -564 0
562 563 564 0
-565 -566 0
-565 -567 0
-566 -567 0
565 566 567 0
-568 -569 0
-568 -570 0
-569 -570 0
568 569 570 0
-571 -572 0
-571 -573 0
-572 -573 0
571 572 573 0
-574 -575 0
-574 -576 0
-575 -576 0
574 575 576 0
-577 -578 0
-577 -579 0
-578 -579 0
577 578 579 0
-580 -581 0
-580 -582 0
-581 -582 0
580 581 582 0
-583 -584 0
-583 -585 0
-584 -585 0
583 584 585 0
-586 -587 0
-586 -588 0
-587 -588 0
586 587 588 0
-589 -590 0
-589 -591 0
-590 -591 0
589 590 591 0
-592 -593 0
-592 -594 0
-593 -594 0
592 593 594 0
-595 -596 0
-595 -597 0
-596 -597 0
595 596 597 0
-598 -599 0
-598 -600 0
-599 -600 0
598 599 600 0
-67 -1 0
-68 -2 0
-69 -3 0
-109 -1 0
-110 -2 0
-111 -3 0
-253 -1 0
-254 -2 0
-255 -3 0
-355 -1 0
-356 -2 0
-357 -3 0
-406 -1 0
-407 -2 0
-408 -3 0
-493 -1 0
-494 -2 0
-495 -3 0
-583 -1 0
-584 -2 0
-585 -3 0
-28 -4 0
-29 -5 0
-30 -6 0
-127 -4 0
-128 -5 0
-129 -6 0
-181 -4 0
-182 -5 0
-183 -6 0
-202 -4 0
-203 -5 0
-204 -6 0
-265 -4 0
-266 -5 0
-267 -6 0
-109 -7 0
-110 -8 0
-111 -9 0
-199 -7 0
-200 -8 0
-201 -9 0
-313 -7 0
-314 -8 0
-315 -9 0
-373 -7 0
-374 -8 0
-375 -9 0
-118 -10 0
-119 -11 0
-120 -12 0
-187 -10 0
-188 -11 0
-189 -12 0
-307 -10 0
-308 -11 0
-309 -12 0
-388 -10 0
-389 -11 0
-390 -12 0
-445 -10 0
-446 -11 0
-447 -12 0
-481 -10 0
-482 -11 0
-483 -12 0
-55 -13 0
-56 -14 0
-57 -15 0
-445 -13 0
-446 -14 0
-447 -15 0
-577 -13 0
-578 -14 0
-579 -15 0
-28 -16 0
-29 -17 0
-30 -18 0
-46 -16 0
-47 -17 0
-48 -18 0
-250 -16 0
-251 -17 0
-252 -18 0
-358 -16 0
-359 -17 0
-360 -18 0
-511 -16 0
-512 -17 0
-513 -18 0
-94 -19 0
-95 -20 0
-96 -21 0
-67 -22 0
-68 -23 0
-69 -24 0
-241 -22 0
-242 -23 0
-243 -24 0
-286 -22 0
-287 -23 0
-288 -24 0
-34 -25 0
-35 -26 0
-36 -27 0
-151 -25 0
-152 -26 0
-153 -27 0
-187 -25 0
-188 -26 0
-189 -27 0
-421 -25 0
-422 -26 0
-423 -27 0
-433 -25 0
-434 -26 0
-435 -27 0
-472 -25 0
-473 -26 0
-474 -27 0
-88 -28 0
-89 -29 0
-90 -30 0
-94 -28 0
-95 -29 0
-96 -30 0
-106 -28 0
-107 -29 0
-108 -30 0
-262 -34 0
-263 -35 0
-264 -36 0
-325 -34 0
-326 -35 0
-327 -36 0
-565 -34 0
-566 -35 0
-567 -36 0
-40 -37 0
-41 -38 0
-42 -39 0
-115 -37 0
-116 -38 0
-117 -39 0
-235 -40 0
-236 -41 0
-237 -42 0
-445 -40 0
-446 -41 0
-447 -42 0
-571 -40 0
-572 -41 0
-573 -42 0
-169 -43 0
-170 -44 0
-171 -45 0
-337 -43 0
-338 -44 0
-339 -45 0
-559 -43 0
-560 -44 0
-561 -45 0
-589 -43 0
-590 -44 0
-591 -45 0
-373 -46 0
-374 -47 0
-375 -48 0
-460 -46 0
-461 -47 0
-462 -48 0
-469 -46 0
-470 -47 0
-471 -48 0
-175 -49 0
-176 -50 0
-177 -51 0
-415 -49 0
-416 -50 0
-417 -51 0
-202 -52 0
-203 -53 0
-204 -54 0
-244 -52 0
-245 -53 0
-246 -54 0
-313 -52 0
-314 -53 0
-315 -54 0
-325 -52 0
-326 -53 0
-327 -54 0
-478 -52 0
-479 -53 0
-480 -54 0
-508 -52 0
-509 -53 0
-510 -54 0
-460 -55 0
-461 -56 0
-462 -57 0
-535 -55 0
-536 -56 0
-537 -57 0
-538 -55 0
-539 -56 0
-540 -57 0
-115 -58 0
-116 -59 0
-117 -60 0
-376 -58 0
-377 -59 0
-378 -60 0
-445 -58 0
-446 -59 0
-447 -60 0
-532 -58 0
-533 -59 0
-534 -60 0
-553 -58 0
-554 -59 0
-555 -60 0
-586 -58 0
-587 -59 0
-588 -60 0
-76 -61 0
-77 -62 0
-78 -63 0
-172 -61 0
-173 -62 0
-174 -63 0
-376 -61 0
-377 -62 0
-378 -63 0
-550 -61 0
-551 -62 0
-552 -63 0
-91 -64 0
-92 -65 0
-93 -66 0
-121 -64 0
-122 -65 0
-123 -66 0
-358 -64 0
-359 -65 0
-360 -66 0
-529 -64 0
-530 -65 0
-531 -66 0
-79 -67 0
-80 -68 0
-81 -69 0
-163 -67 0
-164 -68 0
-165 -69 0
-319 -67 0
-320 -68 0
-321 -69 0
-367 -67 0
-368 -68 0
-369 -69 0
-376 -67 0
-377 -68 0
-378 -69 0
-574 -67 0
-575 -68 0
-576 -69 0
-187 -70 0
-188 -71 0
-189 -72 0
-271 -70 0
-272 -71 0
-273 -72 0
-274 -70 0
-275 -71 0
-276 -72 0
-424 -70 0
-425 -71 0
-426 -72 0
-505 -70 0
-506 -71 0
-507 -72 0
-511 -70 0
-512 -71 0
-513 -72 0
-517 -70 0
-518 -71 0
-519 -72 0
-568 -70 0
-569 -71 0
-570 -72 0
-103 -73 0
-104 -74 0
-105 -75 0
-121 -73 0
-122 -74 0
-123 -75 0
-316 -73 0
-317 -74 0
-318 -75 0
-322 -73 0
-323 -74 0
-324 -75 0
-343 -73 0
-344 -74 0
-345 -75 0
-382 -73 0
-383 -74 0
-384 -75 0
-100 -76 0
-101 -77 0
-102 -78 0
-172 -76 0
-173 -77 0
-174 -78 0
-178 -76 0
-179 -77 0
-180 -78 0
-409 -76 0
-410 -77 0
-411 -78 0
-415 -76 0
-416 -77 0
-417 -78 0
-109 -79 0
-110 -80 0
-111 -81 0
-130 -79 0
-131 -80 0
-132 -81 0
-271 -79 0
-272 -80 0
-273 -81 0
-478 -79 0
-479 -80 0
-480 -81 0
-493 -79 0
-494 -80 0
-495 -81 0
-157 -82 0
-158 -83 0
-159 -84 0
-184 -82 0
-185 -83 0
-186 -84 0
-316 -82 0
-317 -83 0
-318 -84 0
-352 -82 0
-353 -83 0
-354 -84 0
-481 -82 0
-482 -83 0
-483 -84 0
-484 -82 0
-485 -83 0
-486 -84 0
-529 -82 0
-530 -83 0
-531 -84 0
-199 -85 0
-200 -86 0
-201 -87 0
-265 -85 0
-266 -86 0
-267 -87 0
-334 -85 0
-335 -86 0
-336 -87 0
-439 -85 0
-440 -86 0
-441 -87 0
-484 -85 0
-485 -86 0
-486 -87 0
-490 -85 0
-491 -86 0
-492 -87 0
-157 -88 0
-158 -89 0
-159 -90 0
-301 -88 0
-302 -89 0
-303 -90 0
-367 -88 0
-368 -89 0
-369 -90 0
-574 -88 0
-575 -89 0
-576 -90 0
-358 -91 0
-359 -92 0
-360 -93 0
-484 -91 0
-485 -92 0
-486 -93 0
-529 -91 0
-530 -92 0
-531 -93 0
-595 -91 0
-596 -92 0
-597 -93 0
-382 -94 0
-383 -95 0
-384 -96 0
-148 -97 0
-149 -98 0
-150 -99 0
-214 -97 0
-215 -98 0
-216 -99 0
-223 -97 0
-224 -98 0
-225 -99 0
-247 -97 0
-248 -98 0
-249 -99 0
-163 -100 0
-164 -101 0
-165 -102 0
-205 -100 0
-206 -101 0
-207 -102 0
-250 -100 0
-251 -101 0
-252 -102 0
-367 -100 0
-368 -101 0
-369 -102 0
-487 -100 0
-488 -101 0
-489 -102 0
-544 -100 0
-545 -101 0
-546 -102 0
-181 -103 0
-182 -104 0
-183 -105 0
-334 -103 0
-335 -104 0
-336 -105 0
-352 -103 0
-353 -104 0
-354 -105 0
-568 -103 0
-569 -104 0
-570 -105 0
-358 -106 0
-359 -107 0
-360 -108 0
-412 -106 0
-413 -107 0
-414 -108 0
-436 -106 0
-437 -107 0
-438 -108 0
-352 -109 0
-353 -110 0
-354 -111 0
-424 -109 0
-425 -110 0
-426 -111 0
-442 -109 0
-443 -110 0
-444 -111 0
-145 -112 0
-146 -113 0
-147 -114 0
-373 -112 0
-374 -113 0
-375 -114 0
-418 -112 0
-419 -113 0
-420 -114 0
-499 -112 0
-500 -113 0
-501 -114 0
-502 -112 0
-503 -113 0
-504 -114 0
-511 -112 0
-512 -113 0
-513 -114 0
-526 -112 0
-527 -113 0
-528 -114 0
-190 -115 0
-191 -116 0
-192 -117 0
-271 -115 0
-272 -116 0
-273 -117 0
-568 -115 0
-569 -116 0
-570 -117 0
-295 -118 0
-296 -119 0
-297 -120 0
-379 -118 0
-380 -119 0
-381 -120 0
-556 -118 0
-557 -119 0
-558 -120 0
-187 -121 0
-188 -122 0
-189 -123 0
-253 -121 0
-254 -122 0
-255 -123 0
-268 -121 0
-269 -122 0
-270 -123 0
-277 -121 0
-278 -122 0
-279 -123 0
-544 -121 0
-545 -122 0
-546 -123 0
-163 -124 0
-164 -125 0
-165 -126 0
-259 -124 0
-260 -125 0
-261 -126 0
-397 -124 0
-398 -125 0
-399 -126 0
-490 -124 0
-491 -125 0
-492 -126 0
-562 -124 0
-563 -125 0
-564 -126 0
-274 -127 0
-275 -128 0
-276 -129 0
-493 -127 0
-494 -128 0
-495 -129 0
-139 -130 0
-140 -131 0
-141 -132 0
-148 -130 0
-149 -131 0
-150 -132 0
-190 -130 0
-191 -131 0
-192 -132 0
-226 -130 0
-227 -131 0
-228 -132 0
-331 -130 0
-332 -131 0
-333 -132 0
-379 -130 0
-380 -131 0
-381 -132 0
-292 -133 0
-293 -134 0
-294 -135 0
-412 -133 0
-413 -134 0
-414 -135 0
-472 -133 0
-473 -134 0
-474 -135 0
-478 -133 0
-479 -134 0
-480 -135 0
-175 -136 0
-176 -137 0
-177 -138 0
-217 -136 0
-218 -137 0
-219 -138 0
-340 -136 0
-341 -137 0
-342 -138 0
-514 -136 0
-515 -137 0
-516 -138 0
-520 -136 0
-521 -137 0
-522 -138 0
-259 -139 0
-260 -140 0
-261 -141 0
-457 -139 0
-458 -140 0
-459 -141 0
-550 -139 0
-551 -140 0
-552 -141 0
-565 -139 0
-566 -140 0
-567 -141 0
-169 -142 0
-170 -143 0
-171 -144 0
-394 -142 0
-395 -143 0
-396 -144 0
-439 -142 0
-440 -143 0
-441 -144 0
-343 -145 0
-344 -146 0
-345 -147 0
-346 -145 0
-347 -146 0
-348 -147 0
-457 -145 0
-458 -146 0
-459 -147 0
-484 -145 0
-485 -146 0
-486 -147 0
-553 -145 0
-554 -146 0
-555 -147 0
-250 -148 0
-251 -149 0
-252 -150 0
-346 -148 0
-347 -149 0
-348 -150 0
-550 -148 0
-551 -149 0
-552 -150 0
-202 -151 0
-203 -152 0
-204 -153 0
-223 -151 0
-224 -152 0
-225 -153 0
-583 -151 0
-584 -152 0
-585 -153 0
-409 -154 0
-410 -155 0
-411 -156 0
-427 -157 0
-428 -158 0
-429 -159 0
-430 -157 0
-431 -158 0
-432 -159 0
-529 -157 0
-530 -158 0
-531 -159 0
-556 -157 0
-557 -158 0
-558 -159 0
-385 -160 0
-386 -161 0
-387 -162 0
-448 -160 0
-449 -161 0
-450 -162 0
-457 -160 0
-458 -161 0
-459 -162 0
-460 -160 0
-461 -161 0
-462 -162 0
-571 -160 0
-572 -161 0
-573 -162 0
-193 -163 0
-194 -164 0
-195 -165 0
-421 -163 0
-422 -164 0
-423 -165 0
-562 -163 0
-563 -164 0
-564 -165 0
-598 -163 0
-599 -164 0
-600 -165 0
-256 -169 0
-257 -170 0
-258 -171 0
-271 -169 0
-272 -170 0
-273 -171 0
-352 -169 0
-353 -170 0
-354 -171 0
-445 -169 0
-446 -170 0
-447 -171 0
-319 -172 0
-320 -173 0
-321 -174 0
-559 -172 0
-560 -173 0
-561 -174 0
-592 -172 0
-593 -173 0
-594 -174 0
-307 -175 0
-308 -176 0
-309 -177 0
-331 -175 0
-332 -176 0
-333 -177 0
-196 -178 0
-197 -179 0
-198 -180 0
-241 -178 0
-242 -179 0
-243 -180 0
-241 -181 0
-242 -182 0
-243 -183 0
-412 -181 0
-413 -182 0
-414 -183 0
-529 -181 0
-530 -182 0
-531 -183 0
-367 -184 0
-368 -185 0
-369 -186 0
-409 -184 0
-410 -185 0
-411 -186 0
-454 -184 0
-455 -185 0
-456 -186 0
-277 -187 0
-278 -188 0
-279 -189 0
-418 -187 0
-419 -188 0
-420 -189 0
-436 -187 0
-437 -188 0
-438 -189 0
-328 -190 0
-329 -191 0
-330 -192 0
-517 -190 0
-518 -191 0
-519 -192 0
-535 -190 0
-536 -191 0
-537 -192 0
-214 -193 0
-215 -194 0
-216 -195 0
-220 -193 0
-221 -194 0
-222 -195 0
-340 -193 0
-341 -194 0
-342 -195 0
-346 -193 0
-347 -194 0
-348 -195 0
-568 -193 0
-569 -194 0
-570 -195 0
-211 -196 0
-212 -197 0
-213 -198 0
-301 -196 0
-302 -197 0
-303 -198 0
-400 -196 0
-401 -197 0
-402 -198 0
-427 -196 0
-428 -197 0
-429 -198 0
-226 -199 0
-227 -200 0
-228 -201 0
-553 -199 0
-554 -200 0
-555 -201 0
-541 -202 0
-542 -203 0
-543 -204 0
-367 -205 0
-368 -206 0
-369 -207 0
-394 -205 0
-395 -206 0
-396 -207 0
-415 -205 0
-416 -206 0
-417 -207 0
-478 -205 0
-479 -206 0
-480 -207 0
-514 -205 0
-515 -206 0
-516 -207 0
-334 -208 0
-335 -209 0
-336 -210 0
-370 -208 0
-371 -209 0
-372 -210 0
-259 -211 0
-260 -212 0
-261 -213 0
-277 -211 0
-278 -212 0
-279 -213 0
-271 -217 0
-272 -218 0
-273 -219 0
-352 -217 0
-353 -218 0
-354 -219 0
-541 -217 0
-542 -218 0
-543 -219 0
-577 -217 0
-578 -218 0
-579 -219 0
-583 -217 0
-584 -218 0
-585 -219 0
-268 -220 0
-269 -221 0
-270 -222 0
-340 -220 0
-341 -221 0
-342 -222 0
-502 -220 0
-503 -221 0
-504 -222 0
-508 -220 0
-509 -221 0
-510 -222 0
-280 -223 0
-281 -224 0
-282 -225 0
-388 -223 0
-389 -224 0
-390 -225 0
-391 -223 0
-392 -224 0
-393 -225 0
-358 -226 0
-359 -227 0
-360 -228 0
-496 -226 0
-497 -227 0
-498 -228 0
-328 -232 0
-329 -233 0
-330 -234 0
-397 -232 0
-398 -233 0
-399 -234 0
-490 -232 0
-491 -233 0
-492 -234 0
-574 -232 0
-575 -233 0
-576 -234 0
-244 -235 0
-245 -236 0
-246 -237 0
-268 -235 0
-269 -236 0
-270 -237 0
-328 -235 0
-329 -236 0
-330 -237 0
-358 -235 0
-359 -236 0
-360 -237 0
-265 -238 0
-266 -239 0
-267 -240 0
-391 -238 0
-392 -239 0
-393 -240 0
-595 -238 0
-596 -239 0
-597 -240 0
-271 -241 0
-272 -242 0
-273 -243 0
-346 -241 0
-347 -242 0
-348 -243 0
-385 -241 0
-386 -242 0
-387 -243 0
-547 -241 0
-548 -242 0
-549 -243 0
-334 -244 0
-335 -245 0
-336 -246 0
-469 -244 0
-470 -245 0
-471 -246 0
-496 -244 0
-497 -245 0
-498 -246 0
-505 -247 0
-506 -248 0
-507 -249 0
-406 -250 0
-407 -251 0
-408 -252 0
-424 -250 0
-425 -251 0
-426 -252 0
-502 -250 0
-503 -251 0
-504 -252 0
-568 -250 0
-569 -251 0
-570 -252 0
-316 -253 0
-317 -254 0
-318 -255 0
-406 -256 0
-407 -257 0
-408 -258 0
-274 -259 0
-275 -260 0
-276 -261 0
-520 -259 0
-521 -260 0
-522 -261 0
-376 -262 0
-377 -263 0
-378 -264 0
-382 -262 0
-383 -263 0
-384 -264 0
-397 -262 0
-398 -263 0
-399 -264 0
-421 -262 0
-422 -263 0
-423 -264 0
-517 -262 0
-518 -263 0
-519 -264 0
-385 -265 0
-386 -266 0
-387 -267 0
-475 -265 0
-476 -266 0
-477 -267 0
-523 -265 0
-524 -266 0
-525 -267 0
-550 -265 0
-551 -266 0
-552 -267 0
-331 -271 0
-332 -272 0
-333 -273 0
-454 -271 0
-455 -272 0
-456 -273 0
-457 -274 0
-458 -275 0
-459 -276 0
-544 -274 0
-545 -275 0
-546 -276 0
-289 -277 0
-290 -278 0
-291 -279 0
-367 -277 0
-368 -278 0
-369 -279 0
-394 -277 0
-395 -278 0
-396 -279 0
-496 -277 0
-497 -278 0
-498 -279 0
-316 -283 0
-317 -284 0
-318 -285 0
-322 -283 0
-323 -284 0
-324 -285 0
-370 -283 0
-371 -284 0
-372 -285 0
-382 -283 0
-383 -284 0
-384 -285 0
-445 -283 0
-446 -284 0
-447 -285 0
-478 -283 0
-479 -284 0
-480 -285 0
-523 -283 0
-524 -284 0
-525 -285 0
-445 -286 0
-446 -287 0
-447 -288 0
-451 -286 0
-452 -287 0
-453 -288 0
-532 -286 0
-533 -287 0
-534 -288 0
-295 -289 0
-296 -290 0
-297 -291 0
-502 -289 0
-503 -290 0
-504 -291 0
-583 -289 0
-584 -290 0
-585 -291 0
-301 -292 0
-302 -293 0
-303 -294 0
-364 -292 0
-365 -293 0
-366 -294 0
-586 -292 0
-587 -293 0
-588 -294 0
-361 -295 0
-362 -296 0
-363 -297 0
-379 -295 0
-380 -296 0
-381 -297 0
-478 -295 0
-479 -296 0
-480 -297 0
-535 -295 0
-536 -296 0
-537 -297 0
-325 -298 0
-326 -299 0
-327 -300 0
-349 -298 0
-350 -299 0
-351 -300 0
-352 -298 0
-353 -299 0
-354 -300 0
-364 -298 0
-365 -299 0
-366 -300 0
-406 -298 0
-407 -299 0
-408 -300 0
-436 -298 0
-437 -299 0
-438 -300 0
-457 -298 0
-458 -299 0
-459 -300 0
-511 -301 0
-512 -302 0
-513 -303 0
-337 -304 0
-338 -305 0
-339 -306 0
-355 -304 0
-356 -305 0
-357 -306 0
-424 -304 0
-425 -305 0
-426 -306 0
-439 -304 0
-440 -305 0
-441 -306 0
-442 -304 0
-443 -305 0
-444 -306 0
-541 -304 0
-542 -305 0
-543 -306 0
-343 -307 0
-344 -308 0
-345 -309 0
-394 -307 0
-395 -308 0
-396 -309 0
-469 -310 0
-470 -311 0
-471 -312 0
-502 -310 0
-503 -311 0
-504 -312 0
-526 -310 0
-527 -311 0
-528 -312 0
-382 -313 0
-383 -314 0
-384 -315 0
-394 -316 0
-395 -317 0
-396 -318 0
-376 -319 0
-377 -320 0
-378 -321 0
-505 -319 0
-506 -320 0
-507 -321 0
-346 -322 0
-347 -323 0
-348 -324 0
-484 -322 0
-485 -323 0
-486 -324 0
-379 -328 0
-380 -329 0
-381 -330 0
-391 -328 0
-392 -329 0
-393 -330 0
-451 -331 0
-452 -332 0
-453 -333 0
-517 -331 0
-518 -332 0
-519 -333 0
-499 -334 0
-500 -335 0
-501 -336 0
-517 -334 0
-518 -335 0
-519 -336 0
-361 -337 0
-362 -338 0
-363 -339 0
-379 -337 0
-380 -338 0
-381 -339 0
-439 -337 0
-440 -338 0
-441 -339 0
-535 -337 0
-536 -338 0
-537 -339 0
-541 -337 0
-542 -338 0
-543 -339 0
-400 -340 0
-401 -341 0
-402 -342 0
-556 -340 0
-557 -341 0
-558 -342 0
-559 -343 0
-560 -344 0
-561 -345 0
-373 -346 0
-374 -347 0
-375 -348 0
-388 -346 0
-389 -347 0
-390 -348 0
-400 -346 0
-401 -347 0
-402 -348 0
-451 -349 0
-452 -350 0
-453 -351 0
-466 -349 0
-467 -350 0
-468 -351 0
-481 -349 0
-482 -350 0
-483 -351 0
-544 -352 0
-545 -353 0
-546 -354 0
-583 -352 0
-584 -353 0
-585 -354 0
-391 -355 0
-392 -356 0
-393 -357 0
-412 -355 0
-413 -356 0
-414 -357 0
-460 -355 0
-461 -356 0
-462 -357 0
-478 -355 0
-479 -356 0
-480 -357 0
-595 -355 0
-596 -356 0
-597 -357 0
-400 -358 0
-401 -359 0
-402 -360 0
-412 -358 0
-413 -359 0
-414 -360 0
-451 -361 0
-452 -362 0
-453 -363 0
-499 -361 0
-500 -362 0
-501 -363 0
-370 -364 0
-371 -365 0
-372 -366 0
-427 -364 0
-428 -365 0
-429 -366 0
-436 -364 0
-437 -365 0
-438 -366 0
-562 -364 0
-563 -365 0
-564 -366 0
-433 -370 0
-434 -371 0
-435 -372 0
-580 -370 0
-581 -371 0
-582 -372 0
-442 -373 0
-443 -374 0
-444 -375 0
-469 -373 0
-470 -374 0
-471 -375 0
-502 -373 0
-503 -374 0
-504 -375 0
-472 -376 0
-473 -377 0
-474 -378 0
-592 -376 0
-593 -377 0
-594 -378 0
-598 -376 0
-599 -377 0
-600 -378 0
-433 -379 0
-434 -380 0
-435 -381 0
-490 -379 0
-491 -380 0
-492 -381 0
-427 -382 0
-428 -383 0
-429 -384 0
-598 -385 0
-599 -386 0
-600 -387 0
-460 -388 0
-461 -389 0
-462 -390 0
-523 -388 0
-524 -389 0
-525 -390 0
-454 -391 0
-455 -392 0
-456 -393 0
-433 -394 0
-434 -395 0
-435 -396 0
-421 -409 0
-422 -410 0
-423 -411 0
-598 -409 0
-599 -410 0
-600 -411 0
-448 -412 0
-449 -413 0
-450 -414 0
-484 -412 0
-485 -413 0
-486 -414 0
-538 -412 0
-539 -413 0
-540 -414 0
-481 -415 0
-482 -416 0
-483 -417 0
-547 -415 0
-548 -416 0
-549 -417 0
-553 -418 0
-554 -419 0
-555 -420 0
-481 -421 0
-482 -422 0
-483 -423 0
-511 -421 0
-512 -422 0
-513 -423 0
-568 -421 0
-569 -422 0
-570 -423 0
-523 -424 0
-524 -425 0
-525 -426 0
-529 -427 0
-530 -428 0
-531 -429 0
-550 -427 0
-551 -428 0
-552 -429 0
-562 -427 0
-563 -428 0
-564 -429 0
-544 -433 0
-545 -434 0
-546 -435 0
-508 -436 0
-509 -437 0
-510 -438 0
-520 -436 0
-521 -437 0
-522 -438 0
-559 -436 0
-560 -437 0
-561 -438 0
-451 -439 0
-452 -440 0
-453 -441 0
-589 -439 0
-590 -440 0
-591 -441 0
-514 -442 0
-515 -443 0
-516 -444 0
-493 -448 0
-494 -449 0
-495 -450 0
-544 -448 0
-545 -449 0
-546 -450 0
-547 -448 0
-548 -449 0
-549 -450 0
-520 -451 0
-521 -452 0
-522 -453 0
-592 -451 0
-593 -452 0
-594 -453 0
-466 -454 0
-467 -455 0
-468 -456 0
-475 -454 0
-476 -455 0
-477 -456 0
-571 -454 0
-572 -455 0
-573 -456 0
-472 -460 0
-473 -461 0
-474 -462 0
-526 -463 0
-527 -464 0
-528 -465 0
-487 -466 0
-488 -467 0
-489 -468 0
-559 -469 0
-560 -470 0
-561 -471 0
-505 -472 0
-506 -473 0
-507 -474 0
-586 -472 0
-587 -473 0
-588 -474 0
-481 -475 0
-482 -476 0
-483 -477 0
-517 -475 0
-518 -476 0
-519 -477 0
-526 -475 0
-527 -476 0
-528 -477 0
-529 -487 0
-530 -488 0
-531 -489 0
-571 -487 0
-572 -488 0
-573 -489 0
-580 -487 0
-581 -488 0
-582 -489 0
-541 -496 0
-542 -497 0
-543 -498 0
-535 -499 0
-536 -500 0
-537 -501 0
-556 -502 0
-557 -503 0
-558 -504 0
-547 -520 0
-548 -521 0
-549 -522 0
-589 -523 0
-590 -524 0
-591 -525 0
-547 -541 0
-548 -542 0
-549 -543 0
-562 -550 0
-563 -551 0
-564 -552 0
-586 -559 0
-587 -560 0
-588 -561 0
-580 -562 0
-581 -563 0
-582 -564 0
-598 -565 0
-599 -566 0
-600 -567 0
-592 -586 0
-593 -587 0
-594 -588 0
-595 -586 0
-596 -587 0
-597 -588 0
